
ACE v2.1 

  instance
    name:PyCSP

  Loading variables...

  Loading constraints...

  domains
    types:1  values:360  sizes:[3:120]
  variables
    count:120  arrays:1  degrees:[95:4,96:50,97:66]
  constraints
    count:2792  specific:32  groups:2  arities:[4:2760,10:23,24:5,48:4]
    distribution:[Cardinality:5,ConstraintIntension:2760,LexicographicLE:27]
    intStructures:(1,shared:2759)
    wck:1.65  cpu:0.843  mem:97M444

  Building solver... 

  solver
    guaranteedAC:true
    wck:1.70  cpu:0.843  mem:101M641

  preprocessing
    revisions:(11040,useless=11040)  values:360  unsat:false
    wck:0.026  cpu:0.859  mem:101M641

    run0  dpts:0..17  effs:261  fails:2  wrgs:20  wck:0.00

  global
    effs:261  revisions:(77379,useless=77345)
    stop:FULL_EXPLORATION  wrgs:20
    wck:1.79  cpu:0.875  mem:101M641

s UNSATISFIABLE

d WRONG DECISIONS 20
d FOUND SOLUTIONS 0
d COMPLETE EXPLORATION

c real time : 0.875
